; benchmark generated from python API
(set-info :status unknown)
(declare-fun x_months () Int)
(declare-fun x_beta () Int)
(declare-fun y_months () Int)
(declare-fun y_beta () Int)
(assert
 (<= (- 1202) x_months))
(assert
 (>= 1209 x_months))
(assert
 (let ((?x1633 (mod x_months 48)))
 (let ((?x13 ((as const (Array Int Int)) 0)))
 (let ((?x15 (store ?x13 0 31)))
 (let ((?x18 (store ?x15 1 30)))
 (let ((?x20 (store ?x18 2 31)))
 (let ((?x22 (store ?x20 3 30)))
 (let ((?x24 (store ?x22 4 31)))
 (let ((?x26 (store ?x24 5 31)))
 (let ((?x28 (store ?x26 6 30)))
 (let ((?x30 (store ?x28 7 31)))
 (let ((?x32 (store ?x30 8 30)))
 (let ((?x34 (store ?x32 9 31)))
 (let ((?x36 (store ?x34 10 31)))
 (let ((?x39 (store ?x36 11 28)))
 (let ((?x41 (store ?x39 12 31)))
 (let ((?x43 (store ?x41 13 30)))
 (let ((?x45 (store ?x43 14 31)))
 (let ((?x47 (store ?x45 15 30)))
 (let ((?x49 (store ?x47 16 31)))
 (let ((?x51 (store ?x49 17 31)))
 (let ((?x53 (store ?x51 18 30)))
 (let ((?x55 (store ?x53 19 31)))
 (let ((?x57 (store ?x55 20 30)))
 (let ((?x59 (store ?x57 21 31)))
 (let ((?x61 (store ?x59 22 31)))
 (let ((?x63 (store ?x61 23 28)))
 (let ((?x65 (store ?x63 24 31)))
 (let ((?x67 (store ?x65 25 30)))
 (let ((?x69 (store ?x67 26 31)))
 (let ((?x71 (store ?x69 27 30)))
 (let ((?x72 (store ?x71 28 31)))
 (let ((?x74 (store ?x72 29 31)))
 (let ((?x75 (store ?x74 30 30)))
 (let ((?x76 (store ?x75 31 31)))
 (let ((?x78 (store ?x76 32 30)))
 (let ((?x80 (store ?x78 33 31)))
 (let ((?x82 (store ?x80 34 31)))
 (let ((?x84 (store ?x82 35 28)))
 (let ((?x86 (store ?x84 36 31)))
 (let ((?x88 (store ?x86 37 30)))
 (let ((?x90 (store ?x88 38 31)))
 (let ((?x92 (store ?x90 39 30)))
 (let ((?x94 (store ?x92 40 31)))
 (let ((?x96 (store ?x94 41 31)))
 (let ((?x98 (store ?x96 42 30)))
 (let ((?x100 (store ?x98 43 31)))
 (let ((?x102 (store ?x100 44 30)))
 (let ((?x104 (store ?x102 45 31)))
 (let ((?x106 (store ?x104 46 31)))
 (let ((?x108 (store ?x106 47 29)))
 (let ((?x6827 (ite (or (= 22802 (+ x_months 24003)) (= 25202 (+ x_months 24003))) 28 (select ?x108 ?x1633))))
 (let (($x6175 (<= 0 x_beta)))
 (and $x6175 (< x_beta ?x6827)))))))))))))))))))))))))))))))))))))))))))))))))))))))
(assert
 (<= (- 1202) y_months))
(assert
 (>= 1209 y_months))
(assert
 (let ((?x1943 (mod y_months 48)))
 (let ((?x13 ((as const (Array Int Int)) 0)))
 (let ((?x15 (store ?x13 0 31)))
 (let ((?x18 (store ?x15 1 30)))
 (let ((?x20 (store ?x18 2 31)))
 (let ((?x22 (store ?x20 3 30)))
 (let ((?x24 (store ?x22 4 31)))
 (let ((?x26 (store ?x24 5 31)))
 (let ((?x28 (store ?x26 6 30)))
 (let ((?x30 (store ?x28 7 31)))
 (let ((?x32 (store ?x30 8 30)))
 (let ((?x34 (store ?x32 9 31)))
 (let ((?x36 (store ?x34 10 31)))
 (let ((?x39 (store ?x36 11 28)))
 (let ((?x41 (store ?x39 12 31)))
 (let ((?x43 (store ?x41 13 30)))
 (let ((?x45 (store ?x43 14 31)))
 (let ((?x47 (store ?x45 15 30)))
 (let ((?x49 (store ?x47 16 31)))
 (let ((?x51 (store ?x49 17 31)))
 (let ((?x53 (store ?x51 18 30)))
 (let ((?x55 (store ?x53 19 31)))
 (let ((?x57 (store ?x55 20 30)))
 (let ((?x59 (store ?x57 21 31)))
 (let ((?x61 (store ?x59 22 31)))
 (let ((?x63 (store ?x61 23 28)))
 (let ((?x65 (store ?x63 24 31)))
 (let ((?x67 (store ?x65 25 30)))
 (let ((?x69 (store ?x67 26 31)))
 (let ((?x71 (store ?x69 27 30)))
 (let ((?x72 (store ?x71 28 31)))
 (let ((?x74 (store ?x72 29 31)))
 (let ((?x75 (store ?x74 30 30)))
 (let ((?x76 (store ?x75 31 31)))
 (let ((?x78 (store ?x76 32 30)))
 (let ((?x80 (store ?x78 33 31)))
 (let ((?x82 (store ?x80 34 31)))
 (let ((?x84 (store ?x82 35 28)))
 (let ((?x86 (store ?x84 36 31)))
 (let ((?x88 (store ?x86 37 30)))
 (let ((?x90 (store ?x88 38 31)))
 (let ((?x92 (store ?x90 39 30)))
 (let ((?x94 (store ?x92 40 31)))
 (let ((?x96 (store ?x94 41 31)))
 (let ((?x98 (store ?x96 42 30)))
 (let ((?x100 (store ?x98 43 31)))
 (let ((?x102 (store ?x100 44 30)))
 (let ((?x104 (store ?x102 45 31)))
 (let ((?x106 (store ?x104 46 31)))
 (let ((?x108 (store ?x106 47 29)))
 (let ((?x2926 (select ?x108 ?x1943)))
 (let ((?x4389 (ite (or (= 22802 (+ y_months 24003)) (= 25202 (+ y_months 24003))) 28 ?x2926)))
 (let (($x5136 (<= 0 y_beta)))
 (and $x5136 (< y_beta ?x4389))))))))))))))))))))))))))))))))))))))))))))))))))))))))
(assert
 (let (($x6175 (<= 0 x_beta)))
 (or (> x_months (- (+ (* 2023 12) 6) 24003)) (and (= x_months (- (+ (* 2023 12) 6) 24003)) $x6175))))
(assert
 (let ((?x1486 (ite (> 22803 (+ (+ x_months 1) 24003)) 1 (ite (<= 25203 (+ (+ x_months 1) 24003)) (- 1) 0))))
 (let ((?x821 (+ x_months 1)))
 (let ((?x862 (mod ?x821 48)))
 (let ((?x13 ((as const (Array Int Int)) 0)))
 (let ((?x15 (store ?x13 0 31)))
 (let ((?x18 (store ?x15 1 30)))
 (let ((?x20 (store ?x18 2 31)))
 (let ((?x22 (store ?x20 3 30)))
 (let ((?x24 (store ?x22 4 31)))
 (let ((?x26 (store ?x24 5 31)))
 (let ((?x28 (store ?x26 6 30)))
 (let ((?x30 (store ?x28 7 31)))
 (let ((?x32 (store ?x30 8 30)))
 (let ((?x34 (store ?x32 9 31)))
 (let ((?x36 (store ?x34 10 31)))
 (let ((?x39 (store ?x36 11 28)))
 (let ((?x41 (store ?x39 12 31)))
 (let ((?x43 (store ?x41 13 30)))
 (let ((?x45 (store ?x43 14 31)))
 (let ((?x47 (store ?x45 15 30)))
 (let ((?x49 (store ?x47 16 31)))
 (let ((?x51 (store ?x49 17 31)))
 (let ((?x53 (store ?x51 18 30)))
 (let ((?x55 (store ?x53 19 31)))
 (let ((?x57 (store ?x55 20 30)))
 (let ((?x59 (store ?x57 21 31)))
 (let ((?x61 (store ?x59 22 31)))
 (let ((?x63 (store ?x61 23 28)))
 (let ((?x65 (store ?x63 24 31)))
 (let ((?x67 (store ?x65 25 30)))
 (let ((?x69 (store ?x67 26 31)))
 (let ((?x71 (store ?x69 27 30)))
 (let ((?x72 (store ?x71 28 31)))
 (let ((?x74 (store ?x72 29 31)))
 (let ((?x75 (store ?x74 30 30)))
 (let ((?x76 (store ?x75 31 31)))
 (let ((?x78 (store ?x76 32 30)))
 (let ((?x80 (store ?x78 33 31)))
 (let ((?x82 (store ?x80 34 31)))
 (let ((?x84 (store ?x82 35 28)))
 (let ((?x86 (store ?x84 36 31)))
 (let ((?x88 (store ?x86 37 30)))
 (let ((?x90 (store ?x88 38 31)))
 (let ((?x92 (store ?x90 39 30)))
 (let ((?x94 (store ?x92 40 31)))
 (let ((?x96 (store ?x94 41 31)))
 (let ((?x98 (store ?x96 42 30)))
 (let ((?x100 (store ?x98 43 31)))
 (let ((?x102 (store ?x100 44 30)))
 (let ((?x104 (store ?x102 45 31)))
 (let ((?x106 (store ?x104 46 31)))
 (let ((?x108 (store ?x106 47 29)))
 (let ((?x5954 (ite (or (= 22802 (+ ?x821 24003)) (= 25202 (+ ?x821 24003))) 28 (select ?x108 ?x862))))
 (let ((?x6799 (- ?x5954 1)))
 (let ((?x114 (store (store (store (store ?x13 0 0) 1 31) 2 61) 3 92)))
 (let ((?x122 (store (store (store (store ?x114 4 122) 5 153) 6 184) 7 214)))
 (let ((?x130 (store (store (store (store ?x122 8 245) 9 275) 10 306) 11 337)))
 (let ((?x138 (store (store (store (store ?x130 12 365) 13 396) 14 426) 15 457)))
 (let ((?x146 (store (store (store (store ?x138 16 487) 17 518) 18 549) 19 579)))
 (let ((?x154 (store (store (store (store ?x146 20 610) 21 640) 22 671) 23 702)))
 (let ((?x162 (store (store (store (store ?x154 24 730) 25 761) 26 791) 27 822)))
 (let ((?x170 (store (store (store (store ?x162 28 852) 29 883) 30 914) 31 944)))
 (let ((?x178 (store (store (store (store ?x170 32 975) 33 1005) 34 1036) 35 1067)))
 (let ((?x186 (store (store (store (store ?x178 36 1095) 37 1126) 38 1156) 39 1187)))
 (let ((?x194 (store (store (store (store ?x186 40 1217) 41 1248) 42 1279) 43 1309)))
 (let ((?x202 (store (store (store (store ?x194 44 1340) 45 1370) 46 1401) 47 1432)))
 (let ((?x5108 (+ (select ?x202 ?x862) (ite (> 0 x_beta) 0 (ite (> x_beta ?x6799) ?x6799 x_beta)))))
 (let ((?x6794 (+ (+ ?x5108 ?x1486) 0)))
 (let ((?x5661 (+ ?x821 (* (div ?x6794 1461) 48))))
 (let ((?x5252 (+ (+ ?x5661 (- 1 ?x862)) 24003)))
 (let ((?x6647 (select ?x202 1)))
 (let ((?x2751 (mod ?x6794 1461)))
 (let (($x2577 (>= ?x2751 (+ ?x6647 (ite (> 22803 ?x5252) 1 (ite (<= 25203 ?x5252) (- 1) 0))))))
 (let ((?x1618 (ite (> 22803 (+ (+ ?x5661 (- 2 ?x862)) 24003)) 1 (ite (<= 25203 (+ (+ ?x5661 (- 2 ?x862)) 24003)) (- 1) 0))))
 (let ((?x3295 (select ?x202 2)))
 (let ((?x2036 (ite (> 22803 (+ (+ ?x5661 (- 3 ?x862)) 24003)) 1 (ite (<= 25203 (+ (+ ?x5661 (- 3 ?x862)) 24003)) (- 1) 0))))
 (let ((?x236 (select ?x202 3)))
 (let ((?x1933 (ite (>= ?x2751 (+ ?x236 ?x2036)) 3 (ite (>= ?x2751 (+ ?x3295 ?x1618)) 2 (ite $x2577 1 0)))))
 (let ((?x2307 (ite (> 22803 (+ (+ ?x5661 (- 4 ?x862)) 24003)) 1 (ite (<= 25203 (+ (+ ?x5661 (- 4 ?x862)) 24003)) (- 1) 0))))
 (let ((?x4837 (select ?x202 4)))
 (let ((?x3969 (ite (> 22803 (+ (+ ?x5661 (- 5 ?x862)) 24003)) 1 (ite (<= 25203 (+ (+ ?x5661 (- 5 ?x862)) 24003)) (- 1) 0))))
 (let ((?x2691 (select ?x202 5)))
 (let ((?x2384 (ite (>= ?x2751 (+ ?x2691 ?x3969)) 5 (ite (>= ?x2751 (+ ?x4837 ?x2307)) 4 ?x1933))))
 (let ((?x5138 (ite (> 22803 (+ (+ ?x5661 (- 6 ?x862)) 24003)) 1 (ite (<= 25203 (+ (+ ?x5661 (- 6 ?x862)) 24003)) (- 1) 0))))
 (let ((?x5066 (select ?x202 6)))
 (let ((?x3753 (ite (> 22803 (+ (+ ?x5661 (- 7 ?x862)) 24003)) 1 (ite (<= 25203 (+ (+ ?x5661 (- 7 ?x862)) 24003)) (- 1) 0))))
 (let ((?x2145 (select ?x202 7)))
 (let ((?x1998 (ite (>= ?x2751 (+ ?x2145 ?x3753)) 7 (ite (>= ?x2751 (+ ?x5066 ?x5138)) 6 ?x2384))))
 (let ((?x4094 (ite (> 22803 (+ (+ ?x5661 (- 8 ?x862)) 24003)) 1 (ite (<= 25203 (+ (+ ?x5661 (- 8 ?x862)) 24003)) (- 1) 0))))
 (let ((?x2813 (select ?x202 8)))
 (let ((?x3648 (ite (> 22803 (+ (+ ?x5661 (- 9 ?x862)) 24003)) 1 (ite (<= 25203 (+ (+ ?x5661 (- 9 ?x862)) 24003)) (- 1) 0))))
 (let ((?x501 (select ?x202 9)))
 (let ((?x3475 (ite (>= ?x2751 (+ ?x501 ?x3648)) 9 (ite (>= ?x2751 (+ ?x2813 ?x4094)) 8 ?x1998))))
 (let ((?x1941 (ite (> 22803 (+ (+ ?x5661 (- 10 ?x862)) 24003)) 1 (ite (<= 25203 (+ (+ ?x5661 (- 10 ?x862)) 24003)) (- 1) 0))))
 (let ((?x3762 (select ?x202 10)))
 (let ((?x1781 (ite (> 22803 (+ (+ ?x5661 (- 11 ?x862)) 24003)) 1 (ite (<= 25203 (+ (+ ?x5661 (- 11 ?x862)) 24003)) (- 1) 0))))
 (let ((?x4570 (select ?x202 11)))
 (let ((?x2970 (ite (>= ?x2751 (+ ?x4570 ?x1781)) 11 (ite (>= ?x2751 (+ ?x3762 ?x1941)) 10 ?x3475))))
 (let ((?x3504 (ite (> 22803 (+ (+ ?x5661 (- 12 ?x862)) 24003)) 1 (ite (<= 25203 (+ (+ ?x5661 (- 12 ?x862)) 24003)) (- 1) 0))))
 (let ((?x4667 (select ?x202 12)))
 (let ((?x4178 (ite (> 22803 (+ (+ ?x5661 (- 13 ?x862)) 24003)) 1 (ite (<= 25203 (+ (+ ?x5661 (- 13 ?x862)) 24003)) (- 1) 0))))
 (let ((?x4030 (select ?x202 13)))
 (let ((?x3047 (ite (>= ?x2751 (+ ?x4030 ?x4178)) 13 (ite (>= ?x2751 (+ ?x4667 ?x3504)) 12 ?x2970))))
 (let ((?x5571 (ite (> 22803 (+ (+ ?x5661 (- 14 ?x862)) 24003)) 1 (ite (<= 25203 (+ (+ ?x5661 (- 14 ?x862)) 24003)) (- 1) 0))))
 (let ((?x2771 (select ?x202 14)))
 (let ((?x2539 (ite (> 22803 (+ (+ ?x5661 (- 15 ?x862)) 24003)) 1 (ite (<= 25203 (+ (+ ?x5661 (- 15 ?x862)) 24003)) (- 1) 0))))
 (let ((?x2224 (select ?x202 15)))
 (let ((?x5152 (ite (>= ?x2751 (+ ?x2224 ?x2539)) 15 (ite (>= ?x2751 (+ ?x2771 ?x5571)) 14 ?x3047))))
 (let ((?x6516 (ite (> 22803 (+ (+ ?x5661 (- 16 ?x862)) 24003)) 1 (ite (<= 25203 (+ (+ ?x5661 (- 16 ?x862)) 24003)) (- 1) 0))))
 (let ((?x2439 (select ?x202 16)))
 (let ((?x3736 (ite (> 22803 (+ (+ ?x5661 (- 17 ?x862)) 24003)) 1 (ite (<= 25203 (+ (+ ?x5661 (- 17 ?x862)) 24003)) (- 1) 0))))
 (let ((?x3198 (select ?x202 17)))
 (let ((?x6807 (ite (>= ?x2751 (+ ?x3198 ?x3736)) 17 (ite (>= ?x2751 (+ ?x2439 ?x6516)) 16 ?x5152))))
 (let ((?x1077 (ite (> 22803 (+ (+ ?x5661 (- 18 ?x862)) 24003)) 1 (ite (<= 25203 (+ (+ ?x5661 (- 18 ?x862)) 24003)) (- 1) 0))))
 (let ((?x1307 (select ?x202 18)))
 (let ((?x1518 (ite (> 22803 (+ (+ ?x5661 (- 19 ?x862)) 24003)) 1 (ite (<= 25203 (+ (+ ?x5661 (- 19 ?x862)) 24003)) (- 1) 0))))
 (let ((?x2237 (select ?x202 19)))
 (let ((?x3978 (ite (>= ?x2751 (+ ?x2237 ?x1518)) 19 (ite (>= ?x2751 (+ ?x1307 ?x1077)) 18 ?x6807))))
 (let ((?x4415 (ite (> 22803 (+ (+ ?x5661 (- 20 ?x862)) 24003)) 1 (ite (<= 25203 (+ (+ ?x5661 (- 20 ?x862)) 24003)) (- 1) 0))))
 (let ((?x5324 (select ?x202 20)))
 (let ((?x4702 (ite (> 22803 (+ (+ ?x5661 (- 21 ?x862)) 24003)) 1 (ite (<= 25203 (+ (+ ?x5661 (- 21 ?x862)) 24003)) (- 1) 0))))
 (let ((?x4782 (select ?x202 21)))
 (let ((?x1948 (ite (>= ?x2751 (+ ?x4782 ?x4702)) 21 (ite (>= ?x2751 (+ ?x5324 ?x4415)) 20 ?x3978))))
 (let ((?x860 (ite (> 22803 (+ (+ ?x5661 (- 22 ?x862)) 24003)) 1 (ite (<= 25203 (+ (+ ?x5661 (- 22 ?x862)) 24003)) (- 1) 0))))
 (let ((?x5916 (select ?x202 22)))
 (let ((?x4599 (ite (> 22803 (+ (+ ?x5661 (- 23 ?x862)) 24003)) 1 (ite (<= 25203 (+ (+ ?x5661 (- 23 ?x862)) 24003)) (- 1) 0))))
 (let ((?x5639 (select ?x202 23)))
 (let ((?x3162 (ite (>= ?x2751 (+ ?x5639 ?x4599)) 23 (ite (>= ?x2751 (+ ?x5916 ?x860)) 22 ?x1948))))
 (let ((?x3848 (ite (> 22803 (+ (+ ?x5661 (- 24 ?x862)) 24003)) 1 (ite (<= 25203 (+ (+ ?x5661 (- 24 ?x862)) 24003)) (- 1) 0))))
 (let ((?x6831 (select ?x202 24)))
 (let ((?x1773 (ite (> 22803 (+ (+ ?x5661 (- 25 ?x862)) 24003)) 1 (ite (<= 25203 (+ (+ ?x5661 (- 25 ?x862)) 24003)) (- 1) 0))))
 (let ((?x5317 (select ?x202 25)))
 (let ((?x4709 (ite (>= ?x2751 (+ ?x5317 ?x1773)) 25 (ite (>= ?x2751 (+ ?x6831 ?x3848)) 24 ?x3162))))
 (let ((?x4882 (ite (> 22803 (+ (+ ?x5661 (- 26 ?x862)) 24003)) 1 (ite (<= 25203 (+ (+ ?x5661 (- 26 ?x862)) 24003)) (- 1) 0))))
 (let ((?x6009 (select ?x202 26)))
 (let ((?x6445 (ite (> 22803 (+ (+ ?x5661 (- 27 ?x862)) 24003)) 1 (ite (<= 25203 (+ (+ ?x5661 (- 27 ?x862)) 24003)) (- 1) 0))))
 (let ((?x6444 (select ?x202 27)))
 (let ((?x6450 (ite (>= ?x2751 (+ ?x6444 ?x6445)) 27 (ite (>= ?x2751 (+ ?x6009 ?x4882)) 26 ?x4709))))
 (let ((?x5777 (ite (> 22803 (+ (+ ?x5661 (- 28 ?x862)) 24003)) 1 (ite (<= 25203 (+ (+ ?x5661 (- 28 ?x862)) 24003)) (- 1) 0))))
 (let ((?x1617 (select ?x202 28)))
 (let ((?x1689 (ite (> 22803 (+ (+ ?x5661 (- 29 ?x862)) 24003)) 1 (ite (<= 25203 (+ (+ ?x5661 (- 29 ?x862)) 24003)) (- 1) 0))))
 (let ((?x6692 (select ?x202 29)))
 (let ((?x6727 (ite (>= ?x2751 (+ ?x6692 ?x1689)) 29 (ite (>= ?x2751 (+ ?x1617 ?x5777)) 28 ?x6450))))
 (let ((?x4380 (ite (> 22803 (+ (+ ?x5661 (- 30 ?x862)) 24003)) 1 (ite (<= 25203 (+ (+ ?x5661 (- 30 ?x862)) 24003)) (- 1) 0))))
 (let ((?x1388 (select ?x202 30)))
 (let ((?x3518 (ite (> 22803 (+ (+ ?x5661 (- 31 ?x862)) 24003)) 1 (ite (<= 25203 (+ (+ ?x5661 (- 31 ?x862)) 24003)) (- 1) 0))))
 (let ((?x3257 (select ?x202 31)))
 (let ((?x3490 (ite (>= ?x2751 (+ ?x3257 ?x3518)) 31 (ite (>= ?x2751 (+ ?x1388 ?x4380)) 30 ?x6727))))
 (let ((?x1301 (ite (> 22803 (+ (+ ?x5661 (- 32 ?x862)) 24003)) 1 (ite (<= 25203 (+ (+ ?x5661 (- 32 ?x862)) 24003)) (- 1) 0))))
 (let ((?x4757 (select ?x202 32)))
 (let ((?x962 (ite (> 22803 (+ (+ ?x5661 (- 33 ?x862)) 24003)) 1 (ite (<= 25203 (+ (+ ?x5661 (- 33 ?x862)) 24003)) (- 1) 0))))
 (let ((?x4761 (select ?x202 33)))
 (let ((?x5203 (ite (>= ?x2751 (+ ?x4761 ?x962)) 33 (ite (>= ?x2751 (+ ?x4757 ?x1301)) 32 ?x3490))))
 (let ((?x1188 (ite (> 22803 (+ (+ ?x5661 (- 34 ?x862)) 24003)) 1 (ite (<= 25203 (+ (+ ?x5661 (- 34 ?x862)) 24003)) (- 1) 0))))
 (let ((?x1635 (select ?x202 34)))
 (let ((?x4577 (ite (> 22803 (+ (+ ?x5661 (- 35 ?x862)) 24003)) 1 (ite (<= 25203 (+ (+ ?x5661 (- 35 ?x862)) 24003)) (- 1) 0))))
 (let ((?x1055 (select ?x202 35)))
 (let ((?x4666 (ite (>= ?x2751 (+ ?x1055 ?x4577)) 35 (ite (>= ?x2751 (+ ?x1635 ?x1188)) 34 ?x5203))))
 (let ((?x3377 (ite (> 22803 (+ (+ ?x5661 (- 36 ?x862)) 24003)) 1 (ite (<= 25203 (+ (+ ?x5661 (- 36 ?x862)) 24003)) (- 1) 0))))
 (let ((?x2555 (select ?x202 36)))
 (let ((?x5891 (ite (> 22803 (+ (+ ?x5661 (- 37 ?x862)) 24003)) 1 (ite (<= 25203 (+ (+ ?x5661 (- 37 ?x862)) 24003)) (- 1) 0))))
 (let ((?x3923 (select ?x202 37)))
 (let ((?x5273 (ite (>= ?x2751 (+ ?x3923 ?x5891)) 37 (ite (>= ?x2751 (+ ?x2555 ?x3377)) 36 ?x4666))))
 (let ((?x4050 (ite (> 22803 (+ (+ ?x5661 (- 38 ?x862)) 24003)) 1 (ite (<= 25203 (+ (+ ?x5661 (- 38 ?x862)) 24003)) (- 1) 0))))
 (let ((?x2806 (select ?x202 38)))
 (let ((?x1356 (ite (> 22803 (+ (+ ?x5661 (- 39 ?x862)) 24003)) 1 (ite (<= 25203 (+ (+ ?x5661 (- 39 ?x862)) 24003)) (- 1) 0))))
 (let ((?x2542 (select ?x202 39)))
 (let ((?x4312 (ite (>= ?x2751 (+ ?x2542 ?x1356)) 39 (ite (>= ?x2751 (+ ?x2806 ?x4050)) 38 ?x5273))))
 (let ((?x5135 (ite (> 22803 (+ (+ ?x5661 (- 40 ?x862)) 24003)) 1 (ite (<= 25203 (+ (+ ?x5661 (- 40 ?x862)) 24003)) (- 1) 0))))
 (let ((?x1270 (select ?x202 40)))
 (let ((?x5283 (ite (> 22803 (+ (+ ?x5661 (- 41 ?x862)) 24003)) 1 (ite (<= 25203 (+ (+ ?x5661 (- 41 ?x862)) 24003)) (- 1) 0))))
 (let ((?x752 (select ?x202 41)))
 (let ((?x5091 (ite (>= ?x2751 (+ ?x752 ?x5283)) 41 (ite (>= ?x2751 (+ ?x1270 ?x5135)) 40 ?x4312))))
 (let ((?x2789 (ite (> 22803 (+ (+ ?x5661 (- 42 ?x862)) 24003)) 1 (ite (<= 25203 (+ (+ ?x5661 (- 42 ?x862)) 24003)) (- 1) 0))))
 (let ((?x2980 (select ?x202 42)))
 (let ((?x3514 (ite (> 22803 (+ (+ ?x5661 (- 43 ?x862)) 24003)) 1 (ite (<= 25203 (+ (+ ?x5661 (- 43 ?x862)) 24003)) (- 1) 0))))
 (let ((?x4562 (select ?x202 43)))
 (let ((?x4167 (ite (>= ?x2751 (+ ?x4562 ?x3514)) 43 (ite (>= ?x2751 (+ ?x2980 ?x2789)) 42 ?x5091))))
 (let ((?x3362 (ite (> 22803 (+ (+ ?x5661 (- 44 ?x862)) 24003)) 1 (ite (<= 25203 (+ (+ ?x5661 (- 44 ?x862)) 24003)) (- 1) 0))))
 (let ((?x6746 (select ?x202 44)))
 (let ((?x4292 (ite (> 22803 (+ (+ ?x5661 (- 45 ?x862)) 24003)) 1 (ite (<= 25203 (+ (+ ?x5661 (- 45 ?x862)) 24003)) (- 1) 0))))
 (let ((?x3388 (select ?x202 45)))
 (let ((?x3763 (ite (>= ?x2751 (+ ?x3388 ?x4292)) 45 (ite (>= ?x2751 (+ ?x6746 ?x3362)) 44 ?x4167))))
 (let ((?x3940 (ite (> 22803 (+ (+ ?x5661 (- 46 ?x862)) 24003)) 1 (ite (<= 25203 (+ (+ ?x5661 (- 46 ?x862)) 24003)) (- 1) 0))))
 (let ((?x6622 (select ?x202 46)))
 (let ((?x5110 (ite (> 22803 (+ (+ ?x5661 (- 47 ?x862)) 24003)) 1 (ite (<= 25203 (+ (+ ?x5661 (- 47 ?x862)) 24003)) (- 1) 0))))
 (let ((?x4004 (select ?x202 47)))
 (let ((?x3016 (ite (>= ?x2751 (+ ?x4004 ?x5110)) 47 (ite (>= ?x2751 (+ ?x6622 ?x3940)) 46 ?x3763))))
 (let (($x2075 (or (= 22802 (+ (+ ?x5661 (- ?x3016 ?x862)) 24003)) (= 25202 (+ (+ ?x5661 (- ?x3016 ?x862)) 24003)))))
 (let ((?x4199 (ite $x2075 28 (select ?x108 ?x3016))))
 (let ((?x3111 (ite (> 22803 (+ (+ ?x5661 (- ?x3016 ?x862)) 24003)) 1 (ite (<= 25203 (+ (+ ?x5661 (- ?x3016 ?x862)) 24003)) (- 1) 0))))
 (let ((?x4811 (- ?x2751 (+ (select ?x202 ?x3016) ?x3111))))
 (let ((?x1904 (ite (>= ?x4811 ?x4199) 1 0)))
 (let ((?x4980 (+ ?x5661 (- ?x3016 ?x862))))
 (let ((?x5409 (+ (+ ?x4980 ?x1904) 0)))
 (let ((?x4944 (mod ?x5409 48)))
 (let ((?x3061 (ite (> 22803 (+ ?x5409 24003)) 1 (ite (<= 25203 (+ ?x5409 24003)) (- 1) 0))))
 (let ((?x2986 (ite (= 1 ?x1904) (- ?x4811 ?x4199) ?x4811)))
 (let ((?x4640 (ite (or (= 22802 (+ ?x5409 24003)) (= 25202 (+ ?x5409 24003))) 28 (select ?x108 ?x4944))))
 (let ((?x6504 (- ?x4640 1)))
 (let ((?x5148 (+ (select ?x202 ?x4944) (ite (> 0 ?x2986) 0 (ite (> ?x2986 ?x6504) ?x6504 ?x2986)))))
 (let ((?x2770 (+ (+ ?x5148 ?x3061) 15)))
 (let ((?x2373 (+ ?x5409 (* (div ?x2770 1461) 48))))
 (let ((?x6507 (+ (+ ?x2373 (- 1 ?x4944)) 24003)))
 (let ((?x6006 (mod ?x2770 1461)))
 (let (($x4067 (>= ?x6006 (+ ?x6647 (ite (> 22803 ?x6507) 1 (ite (<= 25203 ?x6507) (- 1) 0))))))
 (let ((?x5236 (ite (> 22803 (+ (+ ?x2373 (- 2 ?x4944)) 24003)) 1 (ite (<= 25203 (+ (+ ?x2373 (- 2 ?x4944)) 24003)) (- 1) 0))))
 (let ((?x4348 (ite (> 22803 (+ (+ ?x2373 (- 3 ?x4944)) 24003)) 1 (ite (<= 25203 (+ (+ ?x2373 (- 3 ?x4944)) 24003)) (- 1) 0))))
 (let ((?x3983 (ite (>= ?x6006 (+ ?x236 ?x4348)) 3 (ite (>= ?x6006 (+ ?x3295 ?x5236)) 2 (ite $x4067 1 0)))))
 (let ((?x720 (ite (> 22803 (+ (+ ?x2373 (- 4 ?x4944)) 24003)) 1 (ite (<= 25203 (+ (+ ?x2373 (- 4 ?x4944)) 24003)) (- 1) 0))))
 (let ((?x6651 (ite (> 22803 (+ (+ ?x2373 (- 5 ?x4944)) 24003)) 1 (ite (<= 25203 (+ (+ ?x2373 (- 5 ?x4944)) 24003)) (- 1) 0))))
 (let ((?x6696 (ite (>= ?x6006 (+ ?x2691 ?x6651)) 5 (ite (>= ?x6006 (+ ?x4837 ?x720)) 4 ?x3983))))
 (let ((?x5638 (ite (> 22803 (+ (+ ?x2373 (- 6 ?x4944)) 24003)) 1 (ite (<= 25203 (+ (+ ?x2373 (- 6 ?x4944)) 24003)) (- 1) 0))))
 (let ((?x1828 (ite (> 22803 (+ (+ ?x2373 (- 7 ?x4944)) 24003)) 1 (ite (<= 25203 (+ (+ ?x2373 (- 7 ?x4944)) 24003)) (- 1) 0))))
 (let ((?x5386 (ite (>= ?x6006 (+ ?x2145 ?x1828)) 7 (ite (>= ?x6006 (+ ?x5066 ?x5638)) 6 ?x6696))))
 (let ((?x5917 (ite (> 22803 (+ (+ ?x2373 (- 8 ?x4944)) 24003)) 1 (ite (<= 25203 (+ (+ ?x2373 (- 8 ?x4944)) 24003)) (- 1) 0))))
 (let ((?x5518 (ite (> 22803 (+ (+ ?x2373 (- 9 ?x4944)) 24003)) 1 (ite (<= 25203 (+ (+ ?x2373 (- 9 ?x4944)) 24003)) (- 1) 0))))
 (let ((?x690 (ite (>= ?x6006 (+ ?x501 ?x5518)) 9 (ite (>= ?x6006 (+ ?x2813 ?x5917)) 8 ?x5386))))
 (let ((?x2045 (ite (> 22803 (+ (+ ?x2373 (- 10 ?x4944)) 24003)) 1 (ite (<= 25203 (+ (+ ?x2373 (- 10 ?x4944)) 24003)) (- 1) 0))))
 (let ((?x5294 (ite (> 22803 (+ (+ ?x2373 (- 11 ?x4944)) 24003)) 1 (ite (<= 25203 (+ (+ ?x2373 (- 11 ?x4944)) 24003)) (- 1) 0))))
 (let ((?x5278 (ite (>= ?x6006 (+ ?x4570 ?x5294)) 11 (ite (>= ?x6006 (+ ?x3762 ?x2045)) 10 ?x690))))
 (let ((?x6240 (ite (> 22803 (+ (+ ?x2373 (- 12 ?x4944)) 24003)) 1 (ite (<= 25203 (+ (+ ?x2373 (- 12 ?x4944)) 24003)) (- 1) 0))))
 (let ((?x5503 (ite (> 22803 (+ (+ ?x2373 (- 13 ?x4944)) 24003)) 1 (ite (<= 25203 (+ (+ ?x2373 (- 13 ?x4944)) 24003)) (- 1) 0))))
 (let ((?x6141 (ite (>= ?x6006 (+ ?x4030 ?x5503)) 13 (ite (>= ?x6006 (+ ?x4667 ?x6240)) 12 ?x5278))))
 (let ((?x4708 (ite (> 22803 (+ (+ ?x2373 (- 14 ?x4944)) 24003)) 1 (ite (<= 25203 (+ (+ ?x2373 (- 14 ?x4944)) 24003)) (- 1) 0))))
 (let ((?x6412 (ite (> 22803 (+ (+ ?x2373 (- 15 ?x4944)) 24003)) 1 (ite (<= 25203 (+ (+ ?x2373 (- 15 ?x4944)) 24003)) (- 1) 0))))
 (let ((?x2867 (ite (>= ?x6006 (+ ?x2224 ?x6412)) 15 (ite (>= ?x6006 (+ ?x2771 ?x4708)) 14 ?x6141))))
 (let ((?x1222 (ite (> 22803 (+ (+ ?x2373 (- 16 ?x4944)) 24003)) 1 (ite (<= 25203 (+ (+ ?x2373 (- 16 ?x4944)) 24003)) (- 1) 0))))
 (let ((?x6503 (ite (> 22803 (+ (+ ?x2373 (- 17 ?x4944)) 24003)) 1 (ite (<= 25203 (+ (+ ?x2373 (- 17 ?x4944)) 24003)) (- 1) 0))))
 (let ((?x2035 (ite (>= ?x6006 (+ ?x3198 ?x6503)) 17 (ite (>= ?x6006 (+ ?x2439 ?x1222)) 16 ?x2867))))
 (let ((?x1871 (ite (> 22803 (+ (+ ?x2373 (- 18 ?x4944)) 24003)) 1 (ite (<= 25203 (+ (+ ?x2373 (- 18 ?x4944)) 24003)) (- 1) 0))))
 (let ((?x6815 (ite (> 22803 (+ (+ ?x2373 (- 19 ?x4944)) 24003)) 1 (ite (<= 25203 (+ (+ ?x2373 (- 19 ?x4944)) 24003)) (- 1) 0))))
 (let ((?x4665 (ite (>= ?x6006 (+ ?x2237 ?x6815)) 19 (ite (>= ?x6006 (+ ?x1307 ?x1871)) 18 ?x2035))))
 (let ((?x4326 (ite (> 22803 (+ (+ ?x2373 (- 20 ?x4944)) 24003)) 1 (ite (<= 25203 (+ (+ ?x2373 (- 20 ?x4944)) 24003)) (- 1) 0))))
 (let ((?x4576 (ite (> 22803 (+ (+ ?x2373 (- 21 ?x4944)) 24003)) 1 (ite (<= 25203 (+ (+ ?x2373 (- 21 ?x4944)) 24003)) (- 1) 0))))
 (let ((?x4620 (ite (>= ?x6006 (+ ?x4782 ?x4576)) 21 (ite (>= ?x6006 (+ ?x5324 ?x4326)) 20 ?x4665))))
 (let ((?x1514 (ite (> 22803 (+ (+ ?x2373 (- 22 ?x4944)) 24003)) 1 (ite (<= 25203 (+ (+ ?x2373 (- 22 ?x4944)) 24003)) (- 1) 0))))
 (let ((?x1600 (ite (> 22803 (+ (+ ?x2373 (- 23 ?x4944)) 24003)) 1 (ite (<= 25203 (+ (+ ?x2373 (- 23 ?x4944)) 24003)) (- 1) 0))))
 (let ((?x1583 (ite (>= ?x6006 (+ ?x5639 ?x1600)) 23 (ite (>= ?x6006 (+ ?x5916 ?x1514)) 22 ?x4620))))
 (let ((?x6258 (ite (> 22803 (+ (+ ?x2373 (- 24 ?x4944)) 24003)) 1 (ite (<= 25203 (+ (+ ?x2373 (- 24 ?x4944)) 24003)) (- 1) 0))))
 (let ((?x4269 (ite (> 22803 (+ (+ ?x2373 (- 25 ?x4944)) 24003)) 1 (ite (<= 25203 (+ (+ ?x2373 (- 25 ?x4944)) 24003)) (- 1) 0))))
 (let ((?x3954 (ite (>= ?x6006 (+ ?x5317 ?x4269)) 25 (ite (>= ?x6006 (+ ?x6831 ?x6258)) 24 ?x1583))))
 (let ((?x322 (ite (> 22803 (+ (+ ?x2373 (- 26 ?x4944)) 24003)) 1 (ite (<= 25203 (+ (+ ?x2373 (- 26 ?x4944)) 24003)) (- 1) 0))))
 (let ((?x4272 (ite (> 22803 (+ (+ ?x2373 (- 27 ?x4944)) 24003)) 1 (ite (<= 25203 (+ (+ ?x2373 (- 27 ?x4944)) 24003)) (- 1) 0))))
 (let ((?x2918 (ite (>= ?x6006 (+ ?x6444 ?x4272)) 27 (ite (>= ?x6006 (+ ?x6009 ?x322)) 26 ?x3954))))
 (let ((?x6627 (ite (> 22803 (+ (+ ?x2373 (- 28 ?x4944)) 24003)) 1 (ite (<= 25203 (+ (+ ?x2373 (- 28 ?x4944)) 24003)) (- 1) 0))))
 (let ((?x5243 (ite (> 22803 (+ (+ ?x2373 (- 29 ?x4944)) 24003)) 1 (ite (<= 25203 (+ (+ ?x2373 (- 29 ?x4944)) 24003)) (- 1) 0))))
 (let ((?x4819 (ite (>= ?x6006 (+ ?x6692 ?x5243)) 29 (ite (>= ?x6006 (+ ?x1617 ?x6627)) 28 ?x2918))))
 (let ((?x1259 (ite (> 22803 (+ (+ ?x2373 (- 30 ?x4944)) 24003)) 1 (ite (<= 25203 (+ (+ ?x2373 (- 30 ?x4944)) 24003)) (- 1) 0))))
 (let ((?x4751 (ite (> 22803 (+ (+ ?x2373 (- 31 ?x4944)) 24003)) 1 (ite (<= 25203 (+ (+ ?x2373 (- 31 ?x4944)) 24003)) (- 1) 0))))
 (let ((?x6751 (ite (>= ?x6006 (+ ?x3257 ?x4751)) 31 (ite (>= ?x6006 (+ ?x1388 ?x1259)) 30 ?x4819))))
 (let ((?x828 (ite (> 22803 (+ (+ ?x2373 (- 32 ?x4944)) 24003)) 1 (ite (<= 25203 (+ (+ ?x2373 (- 32 ?x4944)) 24003)) (- 1) 0))))
 (let ((?x3521 (ite (> 22803 (+ (+ ?x2373 (- 33 ?x4944)) 24003)) 1 (ite (<= 25203 (+ (+ ?x2373 (- 33 ?x4944)) 24003)) (- 1) 0))))
 (let ((?x2023 (ite (>= ?x6006 (+ ?x4761 ?x3521)) 33 (ite (>= ?x6006 (+ ?x4757 ?x828)) 32 ?x6751))))
 (let ((?x4061 (ite (> 22803 (+ (+ ?x2373 (- 34 ?x4944)) 24003)) 1 (ite (<= 25203 (+ (+ ?x2373 (- 34 ?x4944)) 24003)) (- 1) 0))))
 (let ((?x4293 (ite (> 22803 (+ (+ ?x2373 (- 35 ?x4944)) 24003)) 1 (ite (<= 25203 (+ (+ ?x2373 (- 35 ?x4944)) 24003)) (- 1) 0))))
 (let ((?x1418 (ite (>= ?x6006 (+ ?x1055 ?x4293)) 35 (ite (>= ?x6006 (+ ?x1635 ?x4061)) 34 ?x2023))))
 (let ((?x5897 (ite (> 22803 (+ (+ ?x2373 (- 36 ?x4944)) 24003)) 1 (ite (<= 25203 (+ (+ ?x2373 (- 36 ?x4944)) 24003)) (- 1) 0))))
 (let ((?x5753 (ite (> 22803 (+ (+ ?x2373 (- 37 ?x4944)) 24003)) 1 (ite (<= 25203 (+ (+ ?x2373 (- 37 ?x4944)) 24003)) (- 1) 0))))
 (let ((?x6672 (ite (>= ?x6006 (+ ?x3923 ?x5753)) 37 (ite (>= ?x6006 (+ ?x2555 ?x5897)) 36 ?x1418))))
 (let ((?x1505 (ite (> 22803 (+ (+ ?x2373 (- 38 ?x4944)) 24003)) 1 (ite (<= 25203 (+ (+ ?x2373 (- 38 ?x4944)) 24003)) (- 1) 0))))
 (let ((?x2126 (ite (> 22803 (+ (+ ?x2373 (- 39 ?x4944)) 24003)) 1 (ite (<= 25203 (+ (+ ?x2373 (- 39 ?x4944)) 24003)) (- 1) 0))))
 (let ((?x5581 (ite (>= ?x6006 (+ ?x2542 ?x2126)) 39 (ite (>= ?x6006 (+ ?x2806 ?x1505)) 38 ?x6672))))
 (let ((?x2753 (ite (> 22803 (+ (+ ?x2373 (- 40 ?x4944)) 24003)) 1 (ite (<= 25203 (+ (+ ?x2373 (- 40 ?x4944)) 24003)) (- 1) 0))))
 (let ((?x1465 (ite (> 22803 (+ (+ ?x2373 (- 41 ?x4944)) 24003)) 1 (ite (<= 25203 (+ (+ ?x2373 (- 41 ?x4944)) 24003)) (- 1) 0))))
 (let ((?x5824 (ite (>= ?x6006 (+ ?x752 ?x1465)) 41 (ite (>= ?x6006 (+ ?x1270 ?x2753)) 40 ?x5581))))
 (let ((?x296 (ite (> 22803 (+ (+ ?x2373 (- 42 ?x4944)) 24003)) 1 (ite (<= 25203 (+ (+ ?x2373 (- 42 ?x4944)) 24003)) (- 1) 0))))
 (let ((?x7107 (ite (> 22803 (+ (+ ?x2373 (- 43 ?x4944)) 24003)) 1 (ite (<= 25203 (+ (+ ?x2373 (- 43 ?x4944)) 24003)) (- 1) 0))))
 (let ((?x5501 (ite (>= ?x6006 (+ ?x4562 ?x7107)) 43 (ite (>= ?x6006 (+ ?x2980 ?x296)) 42 ?x5824))))
 (let ((?x1174 (ite (> 22803 (+ (+ ?x2373 (- 44 ?x4944)) 24003)) 1 (ite (<= 25203 (+ (+ ?x2373 (- 44 ?x4944)) 24003)) (- 1) 0))))
 (let ((?x3416 (ite (> 22803 (+ (+ ?x2373 (- 45 ?x4944)) 24003)) 1 (ite (<= 25203 (+ (+ ?x2373 (- 45 ?x4944)) 24003)) (- 1) 0))))
 (let ((?x3360 (ite (>= ?x6006 (+ ?x3388 ?x3416)) 45 (ite (>= ?x6006 (+ ?x6746 ?x1174)) 44 ?x5501))))
 (let ((?x5326 (ite (> 22803 (+ (+ ?x2373 (- 46 ?x4944)) 24003)) 1 (ite (<= 25203 (+ (+ ?x2373 (- 46 ?x4944)) 24003)) (- 1) 0))))
 (let ((?x5499 (ite (> 22803 (+ (+ ?x2373 (- 47 ?x4944)) 24003)) 1 (ite (<= 25203 (+ (+ ?x2373 (- 47 ?x4944)) 24003)) (- 1) 0))))
 (let ((?x3068 (ite (>= ?x6006 (+ ?x4004 ?x5499)) 47 (ite (>= ?x6006 (+ ?x6622 ?x5326)) 46 ?x3360))))
 (let ((?x6230 (+ ?x2373 (- ?x3068 ?x4944))))
 (let ((?x1644 (+ ?x6230 24003)))
 (let ((?x3792 (+ (select ?x202 ?x3068) (ite (> 22803 ?x1644) 1 (ite (<= 25203 ?x1644) (- 1) 0)))))
 (let ((?x6438 (- ?x6006 ?x3792)))
 (let ((?x1626 (ite (or (= 22802 ?x1644) (= 25202 ?x1644)) 28 (select ?x108 ?x3068))))
 (let (($x4730 (= (ite (= 1 (ite (>= ?x6438 ?x1626) 1 0)) (- ?x6438 ?x1626) ?x6438) y_beta)))
 (and (= (+ ?x6230 (ite (>= ?x6438 ?x1626) 1 0)) y_months) $x4730)))))))))))))))))))))))))))))))))))))))))))))))))))))))))))))))))))))))))))))))))))))))))))))))))))))))))))))))))))))))))))))))))))))))))))))))))))))))))))))))))))))))))))))))))))))))))))))))))))))))))))))))))))))))))))))))))))))))))))))))))))))))))))))))))))))))))))))))))))))))))))
(assert
 (let (($x5136 (<= 0 y_beta)))
(or (> y_months (- (+ (* 2023 12) 6) 24003)) (and (= y_months (- (+ (* 2023 12) 6) 24003)) $x5136))))
(check-sat)
